62 14 96 88 46 94 48 34 31 37 19 3 0 49 68 42 80 70 27 60 2 64 84 17 95 61 56 10 21 89 25 69 75 41 15 12 65 73 81 90 43 20 92 77 39 38 93 82 44 87 74 83 55 53 63 36 97 67 28 13 85 9 23 99 16 40 32 45 33 22 18 30 50 76 52 26 71 35 29 51 72 24 5 54 8 59 6 1 58 86 78 98 7 66 47 4 79 57 91 11